60
1070
20
31
41
20
52
13
36
35
57
70
94
81
39
77
93
8
40
66
72
59
0
0 3
0 6
0 8
0 9
0 10
0 11
0 12
0 14
0 15
0 16
0 20
0 21
0 24
0 25
0 27
0 28
0 29
0 33
0 35
0 37
0 38
0 40
0 41
0 43
0 45
0 51
0 52
0 54
0 55
0 58
1 4
1 5
1 7
1 8
1 9
1 10
1 11
1 12
1 15
1 16
1 18
1 20
1 21
1 22
1 23
1 24
1 25
1 26
1 27
1 28
1 31
1 32
1 34
1 35
1 37
1 39
1 40
1 41
1 42
1 43
1 45
1 46
1 47
1 48
1 49
1 50
1 51
1 52
1 55
1 56
1 57
1 58
1 59
2 3
2 4
2 5
2 8
2 9
2 10
2 11
2 12
2 13
2 17
2 18
2 19
2 20
2 21
2 25
2 26
2 27
2 29
2 30
2 31
2 32
2 33
2 36
2 37
2 38
2 39
2 40
2 41
2 42
2 43
2 44
2 46
2 49
2 50
2 51
2 53
2 54
2 58
2 59
3 5
3 7
3 9
3 10
3 11
3 12
3 13
3 14
3 15
3 16
3 18
3 21
3 22
3 23
3 24
3 25
3 26
3 27
3 28
3 29
3 32
3 33
3 35
3 36
3 38
3 40
3 41
3 42
3 43
3 46
3 48
3 50
3 51
3 53
3 55
3 56
3 59
4 5
4 6
4 9
4 12
4 13
4 14
4 15
4 16
4 17
4 19
4 20
4 21
4 22
4 26
4 27
4 29
4 30
4 35
4 36
4 37
4 40
4 41
4 44
4 45
4 48
4 49
4 50
4 54
4 56
4 57
4 58
4 59
5 7
5 13
5 14
5 16
5 18
5 19
5 20
5 21
5 22
5 24
5 26
5 27
5 29
5 30
5 31
5 32
5 33
5 35
5 37
5 40
5 44
5 45
5 46
5 47
5 49
5 50
5 52
5 53
5 56
5 59
6 9
6 10
6 11
6 12
6 15
6 16
6 17
6 18
6 19
6 21
6 22
6 23
6 25
6 26
6 27
6 29
6 31
6 32
6 33
6 34
6 35
6 37
6 38
6 39
6 40
6 41
6 47
6 48
6 50
6 51
6 52
6 54
6 57
6 58
7 9
7 10
7 18
7 20
7 21
7 22
7 24
7 28
7 29
7 30
7 31
7 34
7 38
7 39
7 42
7 43
7 44
7 48
7 50
7 52
7 54
7 56
7 58
8 9
8 12
8 13
8 14
8 16
8 17
8 20
8 21
8 22
8 24
8 25
8 26
8 27
8 28
8 29
8 30
8 31
8 33
8 35
8 37
8 38
8 40
8 41
8 42
8 43
8 44
8 46
8 47
8 54
8 55
8 59
9 10
9 11
9 12
9 13
9 14
9 15
9 19
9 20
9 24
9 25
9 26
9 27
9 29
9 31
9 35
9 36
9 37
9 38
9 39
9 41
9 42
9 43
9 49
9 50
9 51
9 52
9 54
9 55
9 56
9 58
9 59
10 12
10 13
10 14
10 15
10 16
10 18
10 20
10 24
10 25
10 26
10 30
10 31
10 33
10 34
10 35
10 37
10 38
10 41
10 42
10 43
10 44
10 45
10 47
10 49
10 50
10 51
10 52
10 56
10 57
10 59
11 12
11 13
11 14
11 15
11 16
11 17
11 18
11 19
11 20
11 21
11 24
11 26
11 27
11 29
11 30
11 32
11 33
11 34
11 36
11 42
11 43
11 46
11 47
11 48
11 49
11 51
11 52
11 54
11 55
11 56
11 58
11 59
12 13
12 15
12 16
12 17
12 21
12 25
12 26
12 28
12 29
12 30
12 31
12 32
12 33
12 36
12 41
12 42
12 49
12 54
12 56
12 57
13 18
13 19
13 21
13 23
13 24
13 26
13 28
13 29
13 31
13 33
13 34
13 37
13 38
13 42
13 44
13 46
13 47
13 48
13 49
13 52
13 53
13 54
13 55
13 56
13 59
14 19
14 20
14 21
14 23
14 24
14 26
14 28
14 29
14 30
14 32
14 33
14 34
14 35
14 36
14 38
14 41
14 43
14 44
14 45
14 47
14 49
14 51
14 52
14 53
14 56
14 59
15 19
15 23
15 24
15 27
15 29
15 30
15 35
15 36
15 38
15 40
15 41
15 43
15 44
15 47
15 48
15 49
15 51
15 52
15 53
15 55
15 57
15 58
15 59
16 17
16 21
16 24
16 28
16 30
16 31
16 36
16 38
16 39
16 40
16 41
16 43
16 44
16 47
16 48
16 49
16 50
16 51
16 54
16 55
16 56
16 57
16 58
16 59
17 18
17 23
17 24
17 26
17 27
17 28
17 30
17 32
17 33
17 36
17 37
17 40
17 41
17 42
17 43
17 47
17 50
17 51
17 52
17 54
17 55
17 59
18 20
18 22
18 27
18 29
18 31
18 32
18 37
18 38
18 39
18 40
18 41
18 42
18 44
18 46
18 47
18 48
18 50
18 51
18 52
18 53
18 54
18 55
18 56
18 57
18 59
19 20
19 23
19 24
19 25
19 26
19 27
19 28
19 29
19 30
19 31
19 33
19 34
19 35
19 36
19 37
19 38
19 39
19 40
19 41
19 44
19 46
19 47
19 48
19 49
19 50
19 51
19 56
19 58
20 24
20 25
20 26
20 27
20 28
20 30
20 31
20 33
20 34
20 35
20 37
20 38
20 40
20 41
20 42
20 43
20 44
20 45
20 46
20 48
20 52
20 53
20 55
20 56
20 57
20 59
21 22
21 23
21 24
21 25
21 26
21 28
21 29
21 30
21 31
21 33
21 34
21 35
21 36
21 38
21 41
21 42
21 43
21 44
21 45
21 48
21 49
21 51
21 52
21 53
21 54
21 55
21 56
21 58
22 23
22 25
22 27
22 28
22 29
22 30
22 31
22 32
22 34
22 36
22 37
22 39
22 40
22 42
22 43
22 45
22 46
22 48
22 50
22 51
22 52
22 53
22 54
22 55
22 56
22 57
22 58
22 59
23 24
23 25
23 27
23 28
23 29
23 30
23 33
23 34
23 35
23 36
23 38
23 39
23 40
23 42
23 44
23 49
23 52
23 53
23 54
23 55
23 56
23 59
24 26
24 27
24 28
24 29
24 30
24 31
24 32
24 37
24 38
24 40
24 41
24 42
24 43
24 45
24 46
24 48
24 50
24 51
24 52
24 53
24 54
24 55
24 57
25 26
25 28
25 29
25 34
25 36
25 38
25 39
25 40
25 41
25 42
25 45
25 46
25 47
25 48
25 49
25 50
25 53
25 55
25 57
25 58
26 28
26 32
26 33
26 35
26 36
26 37
26 39
26 40
26 41
26 42
26 43
26 44
26 46
26 47
26 50
26 52
26 54
26 55
26 57
26 58
26 59
27 33
27 34
27 37
27 39
27 40
27 42
27 43
27 44
27 49
27 50
27 54
27 57
27 59
28 31
28 32
28 33
28 37
28 38
28 40
28 41
28 43
28 44
28 45
28 49
28 50
28 51
28 52
28 53
28 54
28 56
28 58
28 59
29 30
29 32
29 34
29 38
29 40
29 42
29 44
29 47
29 51
29 52
29 53
29 55
29 57
29 58
30 31
30 33
30 34
30 35
30 37
30 38
30 39
30 41
30 42
30 45
30 46
30 47
30 48
30 50
30 51
30 53
30 54
30 57
30 58
31 32
31 33
31 34
31 35
31 36
31 37
31 39
31 40
31 43
31 44
31 46
31 47
31 49
31 50
31 51
31 52
31 54
31 55
31 56
31 58
31 59
32 34
32 35
32 36
32 37
32 38
32 39
32 42
32 43
32 45
32 47
32 48
32 49
32 50
32 51
32 53
32 54
32 55
32 57
32 59
33 36
33 38
33 39
33 41
33 42
33 43
33 45
33 47
33 48
33 49
33 50
33 51
33 52
33 53
33 54
33 55
33 56
33 57
34 35
34 36
34 37
34 41
34 42
34 43
34 46
34 47
34 48
34 50
34 54
34 56
34 57
34 58
34 59
35 37
35 40
35 41
35 45
35 46
35 47
35 48
35 49
35 52
35 53
35 56
35 57
36 38
36 40
36 42
36 43
36 44
36 48
36 51
36 52
36 53
36 54
36 57
36 59
37 38
37 39
37 40
37 42
37 43
37 44
37 48
37 50
37 56
37 57
37 59
38 39
38 40
38 41
38 44
38 45
38 47
38 50
38 51
38 53
38 54
38 56
38 57
38 58
39 41
39 42
39 44
39 45
39 46
39 47
39 48
39 51
39 52
39 54
39 57
39 58
39 59
40 42
40 46
40 47
40 50
40 51
40 52
40 53
40 54
40 55
40 56
40 57
40 58
41 44
41 45
41 46
41 47
41 48
41 52
41 53
41 54
41 55
41 57
41 59
42 43
42 45
42 46
42 49
42 51
42 53
42 54
42 55
42 56
42 57
43 44
43 46
43 47
43 49
43 51
43 52
43 53
43 54
43 55
43 58
43 59
44 45
44 46
44 47
44 49
44 52
44 53
44 54
44 55
44 56
44 58
45 46
45 47
45 48
45 50
45 52
45 55
45 58
46 48
46 49
46 51
46 53
46 55
46 56
46 57
47 48
47 49
47 50
47 51
47 54
47 57
47 59
48 50
48 51
48 52
48 53
48 55
48 56
48 57
48 58
48 59
49 50
49 51
49 52
49 53
49 54
49 55
49 56
49 57
49 58
49 59
50 51
50 52
50 53
50 55
50 58
50 59
51 52
51 56
51 57
51 58
52 53
52 55
52 57
52 59
53 54
53 55
53 56
53 59
54 57
54 58
54 59
55 57
55 59
56 59
6 56 45
55 29 33
25 10 40
48 17 46
41 43 3
52 19 49
4 13 0
18 12 58
39 20 9
2 31 22
44 53 28
11 27 38
7 15 23
16 54 47
59 37 8
24 30 50
26 1 34
51 5 21
36 32 35
57 42 14
